Automatic mesh   !注释行
0                !0表示自动产生K点
Gamma            !G表示使用M-P方法且以Gamma为中心自动产生K点
4  4  4          !沿各个基矢方向分割各基矢的点数
0. 0. 0.         !对所按网格分割产生的K点进行平移的量