Si2                                     
   1.00000000000000     
    -2.7342568712405808   -2.7342568712405808   -0.0000000000000000
    -2.7342568712405808   -0.0000000000000000   -2.7342568712405808
     0.0000000000000000   -2.7342568712405808   -2.7342568712405808
   Si
     2
Direct
  0.0000000000000000 -0.0000000000000000 -0.0000000000000000
  0.7500000000000000  0.7500000000000000  0.7500000000000000
 
  0.00000000E+00  0.00000000E+00  0.00000000E+00
  0.00000000E+00  0.00000000E+00  0.00000000E+00
