ALGO = Normal
EDIFF = 0.0001
ENCUT = 520.0
IBRION = -1
ICHARG = 0
ISIF = 3
ISMEAR = -5
ISPIN = 2
LAECHG = True
LCHARG = True
LORBIT = 11
LREAL = Auto
LVHAR = True
LWAVE = False
MAGMOM = 2*0.6
NELM = 60
NELMIN = 5
NSW = 0
PREC = accurate
SIGMA = 0.05
