pymatgen 4.7.6+ generated KPOINTS with grid density = 815 / atom
0
Gamma
7 7 7
