Si2
1.0
-2.690500 -2.690500 0.000000
-2.690500 0.000000 -2.690500
-0.000000 -2.690500 -2.690500
Si
2
direct
0.000000 0.000000 0.000000 Si
0.750000 0.750000 0.750000 Si
