ALGO = Normal
EDIFF = 0.0001
ENCUT = 520.0
IBRION = -1
ICHARG = 11
ISIF = 3
ISMEAR = 0
ISPIN = 1
ISYM = 0
LAECHG = False
LCHARG = False
LORBIT = 11
LREAL = Auto
LVHAR = False
LWAVE = False
NBANDS = 15
NEDOS = 601
NELM = 60
NELMIN = 5
NSW = 0
PREC = accurate
SIGMA = 0.001
