Non SCF run on uniform grid
47
Reciprocal
0.0 0.0 0.0 1
0.1 0.0 0.0 8
0.2 0.0 0.0 8
0.3 0.0 0.0 8
0.4 0.0 0.0 8
0.5 0.0 0.0 4
0.1 0.1 0.0 6
0.2 0.1 0.0 24
0.3 0.1 0.0 24
0.4 0.1 0.0 24
0.5 0.1 0.0 24
-0.4 0.1 0.0 24
-0.3 0.1 0.0 24
-0.2 0.1 0.0 24
-0.1 0.1 0.0 12
0.2 0.2 0.0 6
0.3 0.2 0.0 24
0.4 0.2 0.0 24
0.5 0.2 0.0 24
-0.4 0.2 0.0 24
-0.3 0.2 0.0 24
-0.2 0.2 0.0 12
0.3 0.3 0.0 6
0.4 0.3 0.0 24
0.5 0.3 0.0 24
-0.4 0.3 0.0 24
-0.3 0.3 0.0 12
0.4 0.4 0.0 6
0.5 0.4 0.0 24
-0.4 0.4 0.0 12
0.5 0.5 0.0 3
0.3 0.2 0.1 24
0.4 0.2 0.1 48
0.5 0.2 0.1 48
-0.4 0.2 0.1 24
0.4 0.3 0.1 24
0.5 0.3 0.1 48
-0.4 0.3 0.1 48
-0.3 0.3 0.1 48
-0.2 0.3 0.1 24
0.5 0.4 0.1 24
-0.4 0.4 0.1 48
-0.3 0.4 0.1 24
-0.4 0.5 0.1 12
-0.4 0.4 0.2 24
-0.3 0.4 0.2 24
-0.3 0.5 0.2 12
