Non SCF run along symmetry lines
164
Reciprocal
0.0 0.0 0.0 1 \Gamma
0.021739130434782608 3.851859888774472e-34 0.021739130434782608 1 
0.043478260869565216 7.703719777548943e-34 0.043478260869565216 1 
0.06521739130434782 0.0 0.06521739130434784 1 
0.08695652173913043 1.5407439555097887e-33 0.08695652173913043 1 
0.10869565217391305 1.5407439555097887e-33 0.10869565217391305 1 
0.13043478260869565 0.0 0.13043478260869568 1 
0.15217391304347827 0.0 0.15217391304347827 1 
0.17391304347826086 3.0814879110195774e-33 0.17391304347826086 1 
0.19565217391304351 3.0814879110195774e-33 0.1956521739130435 1 
0.2173913043478261 3.0814879110195774e-33 0.2173913043478261 1 
0.23913043478260876 6.162975822039155e-33 0.23913043478260876 1 
0.2608695652173913 0.0 0.26086956521739135 1 
0.2826086956521739 3.0814879110195774e-33 0.28260869565217395 1 
0.30434782608695654 0.0 0.30434782608695654 1 
0.32608695652173914 6.162975822039155e-33 0.32608695652173914 1 
0.34782608695652173 6.162975822039155e-33 0.34782608695652173 1 
0.3695652173913044 0.0 0.3695652173913043 1 
0.39130434782608703 6.162975822039155e-33 0.391304347826087 1 
0.4130434782608696 6.162975822039155e-33 0.4130434782608696 1 
0.4347826086956522 6.162975822039155e-33 0.4347826086956522 1 
0.45652173913043487 1.232595164407831e-32 0.45652173913043487 1 
0.4782608695652175 1.232595164407831e-32 0.4782608695652175 1 
0.5000000000000001 6.162975822039155e-33 0.5000000000000001 1 X
0.5000000000000001 6.162975822039155e-33 0.5000000000000001 1 X
0.5000000000000001 0.020833333333333336 0.5208333333333334 1 
0.5000000000000001 0.04166666666666667 0.5416666666666667 1 
0.5000000000000001 0.0625 0.5625000000000001 1 
0.5000000000000001 0.08333333333333333 0.5833333333333335 1 
0.5000000000000001 0.10416666666666667 0.6041666666666667 1 
0.5000000000000001 0.125 0.6250000000000001 1 
0.5000000000000002 0.14583333333333334 0.6458333333333335 1 
0.5000000000000002 0.16666666666666669 0.6666666666666667 1 
0.5000000000000002 0.18750000000000003 0.6875000000000001 1 
0.5000000000000002 0.20833333333333334 0.7083333333333335 1 
0.5000000000000002 0.22916666666666669 0.7291666666666667 1 
0.5000000000000002 0.25 0.7500000000000001 1 W
0.5000000000000002 0.25 0.7500000000000001 1 W
0.48611111111111127 0.2638888888888889 0.7500000000000001 1 
0.47222222222222243 0.2777777777777778 0.7500000000000002 1 
0.4583333333333335 0.2916666666666667 0.7500000000000001 1 
0.4444444444444446 0.3055555555555556 0.7500000000000001 1 
0.43055555555555575 0.3194444444444445 0.7500000000000002 1 
0.4166666666666669 0.33333333333333337 0.7500000000000002 1 
0.402777777777778 0.3472222222222222 0.7500000000000002 1 
0.3888888888888892 0.36111111111111116 0.7500000000000002 1 
0.3750000000000002 0.375 0.7500000000000002 1 K
0.3750000000000002 0.375 0.7500000000000002 1 K
0.36000000000000026 0.36000000000000004 0.7200000000000002 1 
0.3450000000000002 0.34500000000000003 0.6900000000000002 1 
0.33000000000000024 0.33 0.6600000000000001 1 
0.3150000000000002 0.31500000000000006 0.6300000000000001 1 
0.30000000000000016 0.30000000000000004 0.6000000000000001 1 
0.2850000000000002 0.28500000000000003 0.5700000000000002 1 
0.27000000000000013 0.26999999999999996 0.54 1 
0.2550000000000001 0.25499999999999995 0.51 1 
0.24000000000000013 0.24 0.4800000000000001 1 
0.22500000000000014 0.225 0.45000000000000007 1 
0.2100000000000001 0.21000000000000002 0.4200000000000001 1 
0.19500000000000015 0.19500000000000003 0.3900000000000001 1 
0.1800000000000001 0.18 0.3600000000000001 1 
0.1650000000000001 0.16499999999999998 0.33000000000000007 1 
0.15000000000000008 0.15000000000000002 0.30000000000000004 1 
0.13500000000000004 0.13499999999999995 0.27 1 
0.12000000000000006 0.12 0.24000000000000005 1 
0.10500000000000007 0.10500000000000001 0.21000000000000008 1 
0.09000000000000004 0.09000000000000002 0.18000000000000005 1 
0.07500000000000004 0.07499999999999998 0.15000000000000002 1 
0.06000000000000006 0.06 0.12000000000000005 1 
0.04500000000000002 0.04500000000000001 0.09000000000000002 1 
0.02999999999999998 0.029999999999999975 0.05999999999999995 1 
0.01500000000000004 0.015000000000000036 0.030000000000000072 1 
0.0 0.0 0.0 1 \Gamma
0.0 0.0 0.0 1 \Gamma
0.02500000000000001 0.025 0.02500000000000001 1 
0.05000000000000002 0.05 0.05000000000000002 1 
0.07500000000000001 0.07500000000000001 0.07500000000000002 1 
0.10000000000000003 0.1 0.10000000000000003 1 
0.12500000000000003 0.125 0.125 1 
0.15000000000000002 0.15000000000000002 0.15000000000000005 1 
0.17500000000000004 0.17500000000000002 0.17500000000000002 1 
0.20000000000000007 0.2 0.20000000000000007 1 
0.2250000000000001 0.22500000000000003 0.22500000000000006 1 
0.25000000000000006 0.25 0.25 1 
0.27500000000000013 0.275 0.2750000000000001 1 
0.30000000000000004 0.30000000000000004 0.3000000000000001 1 
0.3250000000000001 0.32500000000000007 0.3250000000000001 1 
0.3500000000000001 0.35000000000000003 0.35000000000000003 1 
0.3750000000000001 0.37500000000000006 0.37500000000000006 1 
0.40000000000000013 0.4 0.40000000000000013 1 
0.4250000000000001 0.42500000000000004 0.42500000000000004 1 
0.4500000000000002 0.45000000000000007 0.4500000000000001 1 
0.4750000000000001 0.475 0.47500000000000003 1 
0.5000000000000001 0.5 0.5 1 L
0.5000000000000001 0.5 0.5 1 L
0.5083333333333335 0.4833333333333334 0.5083333333333334 1 
0.5166666666666668 0.4666666666666667 0.5166666666666667 1 
0.5250000000000001 0.45000000000000007 0.525 1 
0.5333333333333334 0.43333333333333335 0.5333333333333333 1 
0.5416666666666669 0.41666666666666674 0.5416666666666667 1 
0.5500000000000002 0.4 0.55 1 
0.5583333333333335 0.38333333333333336 0.5583333333333333 1 
0.5666666666666667 0.3666666666666667 0.5666666666666667 1 
0.5750000000000001 0.35000000000000003 0.5750000000000001 1 
0.5833333333333334 0.33333333333333337 0.5833333333333334 1 
0.5916666666666667 0.3166666666666667 0.5916666666666667 1 
0.6 0.3 0.6000000000000001 1 
0.6083333333333334 0.2833333333333334 0.6083333333333334 1 
0.6166666666666667 0.2666666666666667 0.6166666666666667 1 
0.625 0.25 0.625 1 U
0.625 0.25 0.625 1 U
0.6111111111111112 0.25 0.6388888888888888 1 
0.5972222222222222 0.25 0.6527777777777778 1 
0.5833333333333334 0.25 0.6666666666666666 1 
0.5694444444444444 0.25 0.6805555555555556 1 
0.5555555555555558 0.25 0.6944444444444446 1 
0.5416666666666669 0.25 0.7083333333333335 1 
0.527777777777778 0.25 0.7222222222222223 1 
0.5138888888888892 0.25000000000000006 0.7361111111111113 1 
0.5000000000000002 0.25 0.7500000000000001 1 W
0.5000000000000002 0.25 0.7500000000000001 1 W
0.5000000000000002 0.2647058823529412 0.7352941176470589 1 
0.5000000000000002 0.27941176470588236 0.7205882352941178 1 
0.5000000000000002 0.29411764705882354 0.7058823529411766 1 
0.5000000000000002 0.3088235294117647 0.6911764705882354 1 
0.5000000000000002 0.3235294117647059 0.6764705882352942 1 
0.5000000000000002 0.3382352941176471 0.661764705882353 1 
0.5000000000000002 0.35294117647058826 0.6470588235294119 1 
0.5000000000000002 0.36764705882352944 0.6323529411764707 1 
0.5000000000000002 0.3823529411764706 0.6176470588235294 1 
0.5000000000000002 0.3970588235294118 0.6029411764705883 1 
0.5000000000000002 0.411764705882353 0.5882352941176472 1 
0.5000000000000002 0.42647058823529416 0.5735294117647058 1 
0.5000000000000002 0.44117647058823534 0.5588235294117647 1 
0.5000000000000002 0.4558823529411765 0.5441176470588236 1 
0.5000000000000002 0.4705882352941177 0.5294117647058824 1 
0.5000000000000002 0.4852941176470589 0.5147058823529411 1 
0.5000000000000001 0.5 0.5 1 L
0.5000000000000001 0.5 0.5 1 L
0.49166666666666686 0.4916666666666667 0.5166666666666667 1 
0.4833333333333335 0.4833333333333334 0.5333333333333334 1 
0.4750000000000002 0.475 0.55 1 
0.4666666666666668 0.4666666666666667 0.5666666666666668 1 
0.4583333333333335 0.45833333333333337 0.5833333333333335 1 
0.4500000000000002 0.45000000000000007 0.6000000000000001 1 
0.4416666666666668 0.4416666666666667 0.6166666666666668 1 
0.4333333333333335 0.43333333333333335 0.6333333333333334 1 
0.42500000000000027 0.42500000000000004 0.6500000000000001 1 
0.4166666666666669 0.41666666666666674 0.6666666666666667 1 
0.40833333333333355 0.4083333333333333 0.6833333333333335 1 
0.4000000000000002 0.4 0.7000000000000002 1 
0.3916666666666669 0.39166666666666666 0.7166666666666668 1 
0.3833333333333336 0.3833333333333333 0.7333333333333335 1 
0.3750000000000002 0.375 0.7500000000000002 1 K
0.625 0.25 0.625 1 U
0.6111111111111112 0.2222222222222222 0.611111111111111 1 
0.5972222222222222 0.19444444444444448 0.5972222222222222 1 
0.5833333333333334 0.16666666666666669 0.5833333333333333 1 
0.5694444444444444 0.1388888888888889 0.5694444444444444 1 
0.5555555555555557 0.1111111111111111 0.5555555555555556 1 
0.5416666666666667 0.08333333333333334 0.5416666666666667 1 
0.5277777777777779 0.055555555555555566 0.5277777777777779 1 
0.5138888888888891 0.027777777777777797 0.513888888888889 1 
0.5000000000000001 6.162975822039155e-33 0.5000000000000001 1 X
